networks/zoo_55_702/zoo_55_702.txt
Number of groups: 27
Flow 5: {1 14} {14 26} {26 6} {6 34} 
Flow 8: {21 25} {25 12} {12 9} {9 37} 
Flow 17: {20 18} {18 46} 
Flow 18: {14 17} {17 16} {16 19} {19 47} 
Flow 21: {15 11} {11 10} {10 23} {23 22} {22 50} 
Flow 39: {2 14} {14 42} 
Flow 61: {10 38} 
Flow 67: {3 21} {21 16} {16 44} 
Flow 88: {4 23} {23 10} {10 11} {11 39} 
Flow 124: {5 15} {15 21} {21 49} 
Flow 132: {26 14} {14 2} {2 30} 
Flow 155: {6 26} {26 54} 
Flow 175: {7 14} {14 21} {21 20} {20 48} 
Flow 205: {8 21} {21 24} {24 52} 
Flow 234: {9 12} {12 25} {25 21} {21 27} {27 55} 
Flow 271: {12 40} 
Flow 276: {11 15} {15 16} {16 17} {17 45} 
Flow 317: {25 15} {15 5} {5 33} 
Flow 336: {13 25} {25 53} 
Flow 403: {16 15} {15 25} {25 13} {13 41} 
Flow 450: {18 20} {20 21} {21 8} {8 36} 
Flow 471: {19 16} {16 21} {21 3} {3 31} 
Flow 475: {17 14} {14 7} {7 35} 
Flow 550: {22 23} {23 4} {4 32} 
Flow 599: {24 21} {21 14} {14 1} {1 29} 
Flow 673: {23 51} 
Flow 691: {27 21} {21 15} {15 43} 
Time taken running everything: 5 seconds
