networks/zoo_55_702/standard/zoo_55_702.sol
<?xml version = "1.0" encoding="UTF-8" standalone="yes"?>
<CPLEXSolution version="1.2">
 <header
   problemName="networks/zoo_55_702/zoo_55_702.lp"
   solutionName="incumbent"
   solutionIndex="-1"
   objectiveValue="27"
   solutionTypeValue="3"
   solutionTypeString="primal"
   solutionStatusValue="101"
   solutionStatusString="integer optimal solution"
   solutionMethodString="mip"
   primalFeasible="1"
   dualFeasible="1"
   MIPNodes="0"
   MIPIterations="1932"
   writeLevel="3"/>
 <quality
   epInt="1.0000000000000001e-05"
   epRHS="9.9999999999999995e-07"
   maxIntInfeas="0"
   maxPrimalInfeas="0"
   maxX="4"
   maxSlack="10"/>
 <variables>
  <variable name="Y(5,6)" index="221" value="1"/>
  <variable name="Y(8,9)" index="386" value="1"/>
  <variable name="Y(17,18)" index="881" value="1"/>
  <variable name="Y(18,19)" index="936" value="1"/>
  <variable name="Y(21,22)" index="1101" value="1"/>
  <variable name="Y(39,14)" index="2065" value="1"/>
  <variable name="Y(61,10)" index="3249" value="1"/>
  <variable name="Y(67,16)" index="3579" value="1"/>
  <variable name="Y(88,11)" index="4708" value="1"/>
  <variable name="Y(124,21)" index="6662" value="1"/>
  <variable name="Y(132,2)" index="7075" value="1"/>
  <variable name="Y(155,26)" index="8341" value="1"/>
  <variable name="Y(175,20)" index="9415" value="1"/>
  <variable name="Y(205,24)" index="11039" value="1"/>
  <variable name="Y(234,27)" index="12608" value="1"/>
  <variable name="Y(271,12)" index="14591" value="1"/>
  <variable name="Y(276,17)" index="14866" value="1"/>
  <variable name="Y(317,5)" index="17068" value="1"/>
  <variable name="Y(336,25)" index="18114" value="1"/>
  <variable name="Y(403,13)" index="21720" value="1"/>
  <variable name="Y(450,8)" index="24253" value="1"/>
  <variable name="Y(471,3)" index="25382" value="1"/>
  <variable name="Y(475,7)" index="25602" value="1"/>
  <variable name="Y(550,4)" index="29649" value="1"/>
  <variable name="Y(599,1)" index="32292" value="1"/>
  <variable name="Y(673,23)" index="36310" value="1"/>
  <variable name="Y(691,15)" index="37274" value="1"/>
  <variable name="X(1,14,5)" index="37912" value="1"/>
  <variable name="X(1,29,599)" index="39208" value="1"/>
  <variable name="X(2,14,39)" index="39350" value="1"/>
  <variable name="X(2,30,132)" index="40145" value="1"/>
  <variable name="X(3,21,67)" index="40782" value="1"/>
  <variable name="X(3,31,471)" index="41888" value="1"/>
  <variable name="X(4,23,88)" index="42207" value="1"/>
  <variable name="X(4,32,550)" index="43371" value="1"/>
  <variable name="X(5,15,124)" index="43647" value="1"/>
  <variable name="X(5,33,317)" index="44542" value="1"/>
  <variable name="X(6,26,155)" index="45082" value="1"/>
  <variable name="X(6,34,5)" index="45634" value="1"/>
  <variable name="X(7,14,175)" index="46506" value="1"/>
  <variable name="X(7,35,475)" index="47508" value="1"/>
  <variable name="X(8,21,205)" index="47940" value="1"/>
  <variable name="X(8,36,450)" index="48887" value="1"/>
  <variable name="X(9,12,234)" index="49373" value="1"/>
  <variable name="X(9,37,8)" index="49849" value="1"/>
  <variable name="X(10,11,88)" index="50631" value="1"/>
  <variable name="X(10,23,21)" index="51266" value="1"/>
  <variable name="X(10,38,61)" index="52008" value="1"/>
  <variable name="X(11,10,21)" index="52670" value="1"/>
  <variable name="X(11,15,276)" index="53627" value="1"/>
  <variable name="X(11,39,88)" index="54141" value="1"/>
  <variable name="X(12,9,8)" index="54763" value="1"/>
  <variable name="X(12,25,234)" index="55691" value="1"/>
  <variable name="X(12,40,271)" index="56430" value="1"/>
  <variable name="X(13,25,336)" index="57197" value="1"/>
  <variable name="X(13,41,403)" index="57966" value="1"/>
  <variable name="X(14,1,599)" index="58864" value="1"/>
  <variable name="X(14,2,132)" index="59099" value="1"/>
  <variable name="X(14,7,475)" index="60144" value="1"/>
  <variable name="X(14,17,18)" index="60389" value="1"/>
  <variable name="X(14,21,175)" index="61248" value="1"/>
  <variable name="X(14,26,5)" index="61780" value="1"/>
  <variable name="X(14,42,39)" index="62516" value="1"/>
  <variable name="X(15,5,317)" index="63496" value="1"/>
  <variable name="X(15,11,21)" index="63902" value="1"/>
  <variable name="X(15,16,276)" index="64859" value="1"/>
  <variable name="X(15,21,124)" index="65409" value="1"/>
  <variable name="X(15,25,403)" index="66390" value="1"/>
  <variable name="X(15,43,691)" index="67380" value="1"/>
  <variable name="X(16,15,403)" index="67794" value="1"/>
  <variable name="X(16,17,276)" index="68369" value="1"/>
  <variable name="X(16,19,18)" index="68813" value="1"/>
  <variable name="X(16,21,471)" index="69968" value="1"/>
  <variable name="X(16,44,67)" index="70266" value="1"/>
  <variable name="X(17,14,475)" index="71376" value="1"/>
  <variable name="X(17,16,18)" index="71621" value="1"/>
  <variable name="X(17,45,276)" index="72581" value="1"/>
  <variable name="X(18,20,450)" index="73457" value="1"/>
  <variable name="X(18,46,17)" index="73726" value="1"/>
  <variable name="X(19,16,471)" index="74882" value="1"/>
  <variable name="X(19,47,18)" index="75131" value="1"/>
  <variable name="X(20,18,17)" index="75832" value="1"/>
  <variable name="X(20,21,450)" index="76967" value="1"/>
  <variable name="X(20,48,175)" index="77394" value="1"/>
  <variable name="X(21,3,471)" index="78392" value="1"/>
  <variable name="X(21,8,450)" index="79073" value="1"/>
  <variable name="X(21,14,599)" index="79924" value="1"/>
  <variable name="X(21,15,691)" index="80718" value="1"/>
  <variable name="X(21,16,67)" index="80796" value="1"/>
  <variable name="X(21,20,175)" index="81606" value="1"/>
  <variable name="X(21,24,205)" index="82338" value="1"/>
  <variable name="X(21,25,8)" index="82843" value="1"/>
  <variable name="X(21,27,234)" index="83771" value="1"/>
  <variable name="X(21,49,124)" index="84363" value="1"/>
  <variable name="X(22,23,550)" index="85491" value="1"/>
  <variable name="X(22,50,21)" index="85664" value="1"/>
  <variable name="X(23,4,550)" index="86895" value="1"/>
  <variable name="X(23,10,88)" index="87135" value="1"/>
  <variable name="X(23,22,21)" index="87770" value="1"/>
  <variable name="X(23,51,673)" index="89124" value="1"/>
  <variable name="X(24,21,599)" index="89752" value="1"/>
  <variable name="X(24,52,205)" index="90060" value="1"/>
  <variable name="X(25,12,8)" index="90565" value="1"/>
  <variable name="X(25,13,403)" index="91662" value="1"/>
  <variable name="X(25,15,317)" index="92278" value="1"/>
  <variable name="X(25,21,234)" index="92897" value="1"/>
  <variable name="X(25,53,336)" index="93701" value="1"/>
  <variable name="X(26,6,5)" index="94072" value="1"/>
  <variable name="X(26,14,132)" index="94901" value="1"/>
  <variable name="X(26,54,155)" index="95626" value="1"/>
  <variable name="X(27,21,691)" index="96864" value="1"/>
  <variable name="X(27,55,234)" index="97109" value="1"/>
  <variable name="C(5,14)" index="97599" value="1"/>
  <variable name="C(5,26)" index="97600" value="2"/>
  <variable name="C(5,6)" index="97601" value="3"/>
  <variable name="C(8,25)" index="97612" value="1"/>
  <variable name="C(8,12)" index="97613" value="2"/>
  <variable name="C(8,9)" index="97614" value="3"/>
  <variable name="C(17,18)" index="97653" value="1"/>
  <variable name="C(18,17)" index="97656" value="1"/>
  <variable name="C(18,16)" index="97657" value="2"/>
  <variable name="C(18,19)" index="97658" value="3"/>
  <variable name="C(21,11)" index="97670" value="1"/>
  <variable name="C(21,10)" index="97671" value="2"/>
  <variable name="C(21,23)" index="97672" value="3"/>
  <variable name="C(21,22)" index="97673" value="4"/>
  <variable name="C(39,14)" index="97755" value="1"/>
  <variable name="C(67,21)" index="97874" value="1"/>
  <variable name="C(67,16)" index="97875" value="2"/>
  <variable name="C(88,23)" index="97984" value="1"/>
  <variable name="C(88,10)" index="97985" value="2"/>
  <variable name="C(88,11)" index="97986" value="3"/>
  <variable name="C(124,15)" index="98169" value="1"/>
  <variable name="C(124,21)" index="98170" value="2"/>
  <variable name="C(132,14)" index="98204" value="1"/>
  <variable name="C(132,2)" index="98205" value="2"/>
  <variable name="C(155,26)" index="98333" value="1"/>
  <variable name="C(175,14)" index="98421" value="1"/>
  <variable name="C(175,21)" index="98422" value="2"/>
  <variable name="C(175,20)" index="98423" value="3"/>
  <variable name="C(205,21)" index="98550" value="1"/>
  <variable name="C(205,24)" index="98551" value="2"/>
  <variable name="C(234,12)" index="98698" value="1"/>
  <variable name="C(234,25)" index="98699" value="1.9999999999999996"/>
  <variable name="C(234,21)" index="98700" value="2.9999999999999996"/>
  <variable name="C(234,27)" index="98701" value="4"/>
  <variable name="C(276,15)" index="98885" value="1"/>
  <variable name="C(276,16)" index="98886" value="2"/>
  <variable name="C(276,17)" index="98887" value="3"/>
  <variable name="C(317,15)" index="99065" value="1"/>
  <variable name="C(317,5)" index="99066" value="2"/>
  <variable name="C(336,25)" index="99149" value="1"/>
  <variable name="C(403,15)" index="99387" value="1"/>
  <variable name="C(403,25)" index="99388" value="2"/>
  <variable name="C(403,13)" index="99389" value="3"/>
  <variable name="C(450,20)" index="99578" value="1"/>
  <variable name="C(450,21)" index="99579" value="2"/>
  <variable name="C(450,8)" index="99580" value="3"/>
  <variable name="C(471,16)" index="99678" value="1"/>
  <variable name="C(471,21)" index="99679" value="2"/>
  <variable name="C(471,3)" index="99680" value="3"/>
  <variable name="C(475,14)" index="99701" value="1"/>
  <variable name="C(475,7)" index="99702" value="2"/>
  <variable name="C(550,23)" index="99993" value="1"/>
  <variable name="C(550,4)" index="99994" value="2"/>
  <variable name="C(599,21)" index="100281" value="1"/>
  <variable name="C(599,14)" index="100282" value="2"/>
  <variable name="C(599,1)" index="100283" value="3"/>
  <variable name="C(691,21)" index="100653" value="1"/>
  <variable name="C(691,15)" index="100654" value="2"/>
 </variables>
</CPLEXSolution>
